c pcminimize - minimizing a CNF with respect to propagation completeness by iterative removing of absorbed clauses.
c Petr Kucera, 2016-2021
c Version 2.7, revision 59, git hash 4910a71, date 2024-07-16 20:17:42 +0200
p cnf 871 2245
251 -252 0
159 -252 0
-179 -253 0
-159 -253 0
252 253 -254 0
162 -256 0
255 -256 0
256 -257 0
172 -257 0
89 -259 0
258 -259 0
259 -260 0
-172 -260 0
257 260 -261 0
254 -262 0
261 -262 0
262 -264 0
263 -264 0
264 -265 0
220 -265 0
162 -266 0
172 -266 0
258 -267 0
-172 -267 0
266 267 -268 0
-48 -269 0
89 -269 0
-179 -269 0
268 -271 0
269 -271 0
270 -271 0
271 -272 0
-220 -272 0
265 272 -273 0
274 -275 0
3 -275 0
23 -276 0
-3 -276 0
275 276 -277 0
278 -279 0
69 -279 0
-60 -280 0
-69 -280 0
279 280 -281 0
21 -282 0
77 -282 0
107 -282 0
-176 -282 0
283 -285 0
284 -285 0
273 -286 0
277 -286 0
281 -286 0
282 -286 0
285 -286 0
286 -287 0
81 -287 0
277 -288 0
-176 -288 0
288 -289 0
284 -289 0
289 -290 0
107 -290 0
23 -291 0
292 -293 0
-23 -293 0
291 293 -294 0
294 -295 0
3 -295 0
23 -296 0
296 -297 0
-3 -297 0
295 297 -298 0
298 -299 0
242 -299 0
299 -300 0
-107 -300 0
290 300 -301 0
77 -302 0
273 -303 0
301 -303 0
302 -303 0
283 -303 0
303 -304 0
21 -304 0
-77 -305 0
-107 -305 0
159 -305 0
179 -305 0
220 -305 0
242 -305 0
283 -306 0
263 -306 0
298 -307 0
261 -307 0
305 -307 0
306 -307 0
307 -308 0
-21 -308 0
304 308 -309 0
309 -310 0
69 -310 0
278 -310 0
310 -311 0
-81 -311 0
287 311 -312 0
-13 -313 0
-111 -313 0
113 -313 0
313 -315 0
314 -315 0
315 -317 0
316 -317 0
317 -318 0
245 -318 0
13 -319 0
111 -319 0
320 -321 0
-111 -321 0
319 321 -322 0
323 -324 0
52 -324 0
113 -325 0
-52 -325 0
324 325 -326 0
322 -327 0
326 -327 0
-249 -327 0
327 -328 0
-245 -328 0
318 328 -329 0
329 -330 0
155 -330 0
-13 -331 0
-111 -331 0
113 -331 0
245 -331 0
249 -331 0
331 -332 0
314 -332 0
332 -333 0
-155 -333 0
330 333 -334 0
-25 -335 0
-123 -335 0
312 -336 0
334 -336 0
335 -336 0
336 -337 0
243 -337 0
254 -338 0
220 -338 0
338 -339 0
48 -339 0
254 -340 0
220 -340 0
-179 -341 0
270 -341 0
341 -342 0
-220 -342 0
340 342 -343 0
343 -344 0
-48 -344 0
339 344 -345 0
283 -346 0
284 -346 0
345 -347 0
334 -347 0
277 -347 0
281 -347 0
282 -347 0
346 -347 0
347 -349 0
348 -349 0
349 -350 0
81 -350 0
345 -351 0
301 -351 0
302 -351 0
283 -351 0
351 -352 0
21 -352 0
283 -353 0
263 -353 0
298 -354 0
305 -354 0
353 -354 0
354 -355 0
-21 -355 0
352 355 -356 0
329 -357 0
-123 -357 0
357 -358 0
155 -358 0
331 -359 0
314 -359 0
359 -360 0
348 -360 0
360 -361 0
-155 -361 0
358 361 -362 0
356 -363 0
362 -363 0
69 -363 0
278 -363 0
363 -364 0
-81 -364 0
350 364 -365 0
89 -366 0
-172 -366 0
365 -367 0
366 -367 0
258 -367 0
367 -369 0
368 -369 0
369 -370 0
-243 -370 0
337 370 -371 0
222 -372 0
206 -372 0
373 -374 0
-206 -374 0
372 374 -375 0
376 -377 0
94 -377 0
-94 -378 0
377 378 -379 0
380 -381 0
214 -381 0
-15 -382 0
-214 -382 0
381 382 -383 0
-2 -384 0
4 -384 0
12 -384 0
-26 -384 0
27 -384 0
-31 -384 0
32 -384 0
35 -384 0
38 -384 0
39 -384 0
-45 -384 0
-58 -384 0
-66 -384 0
-72 -384 0
-75 -384 0
76 -384 0
-79 -384 0
80 -384 0
82 -384 0
-83 -384 0
87 -384 0
-90 -384 0
91 -384 0
93 -384 0
-98 -384 0
104 -384 0
-116 -384 0
-118 -384 0
119 -384 0
129 -384 0
132 -384 0
-133 -384 0
-134 -384 0
135 -384 0
-136 -384 0
-137 -384 0
139 -384 0
-143 -384 0
-149 -384 0
-151 -384 0
-152 -384 0
-156 -384 0
160 -384 0
-161 -384 0
166 -384 0
-168 -384 0
175 -384 0
-182 -384 0
187 -384 0
189 -384 0
192 -384 0
-193 -384 0
-197 -384 0
-199 -384 0
-202 -384 0
208 -384 0
221 -384 0
-229 -384 0
233 -384 0
-240 -384 0
241 -384 0
-244 -384 0
-248 -384 0
385 -391 0
386 -391 0
387 -391 0
388 -391 0
389 -391 0
390 -391 0
371 -392 0
375 -392 0
379 -392 0
383 -392 0
384 -392 0
391 -392 0
392 -393 0
393 -395 0
394 -395 0
395 -396 0
84 -396 0
130 -397 0
171 -397 0
396 -398 0
397 -398 0
398 -399 0
121 -400 0
399 -401 0
400 -401 0
401 -402 0
71 -402 0
13 -403 0
-245 -403 0
403 -404 0
111 -404 0
-245 -405 0
13 -405 0
406 -407 0
-13 -407 0
405 407 -408 0
408 -409 0
-111 -409 0
404 409 -410 0
-26 -411 0
283 -411 0
411 -412 0
130 -412 0
142 -414 0
413 -414 0
414 -415 0
-130 -415 0
412 415 -416 0
-35 -417 0
75 -417 0
76 -417 0
82 -417 0
104 -417 0
109 -417 0
-118 -417 0
-123 -417 0
139 -417 0
241 -417 0
416 -418 0
417 -418 0
418 -420 0
380 -420 0
419 -420 0
420 -421 0
129 -421 0
-76 -423 0
422 -423 0
423 -424 0
35 -424 0
104 -426 0
425 -426 0
426 -427 0
-35 -427 0
424 427 -428 0
428 -429 0
-82 -429 0
429 -431 0
430 -431 0
431 -432 0
118 -432 0
-35 -433 0
76 -433 0
104 -433 0
241 -433 0
433 -435 0
434 -435 0
435 -436 0
-118 -436 0
432 436 -437 0
75 -438 0
109 -438 0
416 -439 0
438 -439 0
439 -440 0
139 -440 0
-26 -441 0
130 -441 0
413 -442 0
-130 -442 0
441 442 -443 0
444 -445 0
109 -445 0
-75 -446 0
-109 -446 0
445 446 -447 0
443 -448 0
447 -448 0
142 -448 0
448 -449 0
-139 -449 0
440 449 -450 0
15 -451 0
240 -451 0
380 -452 0
-240 -452 0
451 452 -453 0
437 -454 0
450 -454 0
453 -454 0
454 -455 0
348 -455 0
455 -456 0
-129 -456 0
421 456 -457 0
-168 -458 0
255 -458 0
458 -459 0
48 -459 0
89 -460 0
168 -460 0
255 -461 0
-168 -461 0
460 461 -462 0
462 -463 0
-48 -463 0
459 463 -464 0
464 -465 0
162 -465 0
465 -466 0
172 -466 0
-168 -467 0
48 -467 0
468 -469 0
-48 -469 0
467 469 -470 0
470 -471 0
89 -471 0
471 -472 0
258 -472 0
472 -473 0
-172 -473 0
466 473 -474 0
-91 -475 0
179 -475 0
476 -477 0
-179 -477 0
475 477 -478 0
478 -479 0
386 -479 0
479 -480 0
27 -480 0
36 -481 0
-91 -481 0
481 -482 0
251 -482 0
482 -483 0
-27 -483 0
480 483 -484 0
149 -485 0
-151 -485 0
-161 -485 0
-232 -485 0
410 -487 0
457 -487 0
474 -487 0
484 -487 0
485 -487 0
486 -487 0
487 -488 0
113 -488 0
-15 -489 0
151 -489 0
380 -490 0
-151 -490 0
489 490 -491 0
208 -492 0
493 -494 0
-208 -494 0
492 494 -495 0
491 -496 0
416 -496 0
495 -496 0
417 -496 0
496 -497 0
419 -497 0
497 -498 0
129 -498 0
-15 -499 0
-240 -499 0
499 -500 0
151 -500 0
453 -501 0
-151 -501 0
500 501 -502 0
283 -503 0
139 -503 0
142 -504 0
-139 -504 0
503 504 -505 0
505 -506 0
-26 -506 0
506 -507 0
130 -507 0
142 -509 0
508 -509 0
509 -510 0
413 -510 0
510 -511 0
-130 -511 0
507 511 -512 0
495 -513 0
512 -513 0
109 -513 0
513 -514 0
75 -514 0
495 -515 0
109 -515 0
-232 -516 0
486 -516 0
516 -517 0
-109 -517 0
515 517 -518 0
-139 -519 0
142 -519 0
518 -520 0
443 -520 0
519 -520 0
520 -521 0
-75 -521 0
514 521 -522 0
502 -523 0
437 -523 0
522 -523 0
523 -524 0
348 -524 0
524 -525 0
-129 -525 0
498 525 -526 0
27 -527 0
89 -527 0
-149 -527 0
-172 -527 0
386 -528 0
258 -528 0
470 -529 0
478 -529 0
527 -529 0
528 -529 0
529 -530 0
161 -530 0
478 -532 0
386 -532 0
531 -532 0
532 -533 0
27 -533 0
36 -534 0
-91 -534 0
149 -534 0
534 -535 0
251 -535 0
535 -536 0
-27 -536 0
533 536 -537 0
474 -538 0
537 -538 0
538 -539 0
-161 -539 0
530 539 -540 0
526 -541 0
322 -541 0
540 -541 0
-245 -541 0
541 -542 0
-113 -542 0
488 542 -543 0
-90 -544 0
-159 -544 0
220 -544 0
543 -546 0
544 -546 0
545 -546 0
546 -548 0
547 -548 0
548 -549 0
147 -549 0
386 -550 0
476 -550 0
550 -551 0
27 -551 0
481 -552 0
-27 -552 0
551 552 -553 0
159 -554 0
-245 -554 0
322 -555 0
553 -555 0
554 -555 0
251 -555 0
555 -556 0
90 -556 0
476 -557 0
251 -557 0
557 -558 0
159 -558 0
478 -559 0
-159 -559 0
558 559 -560 0
560 -561 0
386 -561 0
561 -562 0
27 -562 0
270 -563 0
251 -563 0
481 -564 0
563 -564 0
564 -565 0
-27 -565 0
562 565 -566 0
566 -567 0
410 -567 0
567 -568 0
-90 -568 0
556 568 -569 0
-35 -570 0
75 -570 0
76 -570 0
82 -570 0
104 -570 0
109 -570 0
-118 -570 0
-123 -570 0
137 -570 0
139 -570 0
241 -570 0
416 -571 0
570 -571 0
571 -572 0
380 -572 0
419 -572 0
572 -573 0
129 -573 0
-35 -574 0
76 -574 0
104 -574 0
-118 -574 0
137 -574 0
241 -574 0
574 -575 0
82 -575 0
-76 -576 0
118 -576 0
576 -577 0
430 -577 0
577 -578 0
422 -578 0
547 -578 0
578 -579 0
35 -579 0
430 -580 0
425 -580 0
580 -581 0
118 -581 0
76 -582 0
241 -582 0
582 -583 0
-118 -583 0
581 583 -584 0
104 -585 0
137 -585 0
584 -586 0
585 -586 0
586 -587 0
-35 -587 0
579 587 -588 0
588 -589 0
-82 -589 0
575 589 -590 0
590 -591 0
450 -591 0
453 -591 0
591 -592 0
348 -592 0
592 -593 0
-129 -593 0
573 593 -594 0
474 -595 0
545 -595 0
595 -596 0
220 -596 0
-48 -597 0
89 -597 0
-134 -597 0
268 -598 0
597 -598 0
468 -598 0
598 -599 0
-220 -599 0
596 599 -600 0
569 -601 0
594 -601 0
600 -601 0
485 -601 0
486 -601 0
601 -602 0
113 -602 0
491 -603 0
416 -603 0
495 -603 0
570 -603 0
603 -604 0
419 -604 0
604 -605 0
129 -605 0
502 -606 0
590 -606 0
522 -606 0
606 -607 0
348 -607 0
607 -608 0
-129 -608 0
605 608 -609 0
476 -610 0
251 -610 0
159 -611 0
610 -611 0
611 -612 0
90 -612 0
560 -613 0
-90 -613 0
612 613 -614 0
614 -615 0
386 -615 0
531 -615 0
615 -616 0
27 -616 0
159 -617 0
90 -617 0
270 -618 0
-90 -618 0
617 618 -619 0
619 -620 0
534 -620 0
251 -620 0
620 -621 0
-27 -621 0
616 621 -622 0
-168 -623 0
220 -623 0
545 -624 0
255 -624 0
623 -625 0
624 -625 0
625 -626 0
48 -626 0
462 -627 0
545 -627 0
627 -628 0
220 -628 0
89 -629 0
-134 -629 0
629 -630 0
468 -630 0
630 -631 0
-220 -631 0
628 631 -632 0
632 -633 0
-48 -633 0
626 633 -634 0
-161 -635 0
162 -635 0
622 -636 0
634 -636 0
635 -636 0
636 -637 0
172 -637 0
-161 -638 0
149 -638 0
639 -640 0
-149 -640 0
638 640 -641 0
614 -642 0
641 -642 0
642 -643 0
386 -643 0
643 -644 0
27 -644 0
36 -645 0
-91 -645 0
149 -645 0
-161 -645 0
619 -646 0
645 -646 0
251 -646 0
646 -647 0
-27 -647 0
644 647 -648 0
623 -649 0
545 -649 0
649 -650 0
48 -650 0
545 -651 0
220 -651 0
-134 -652 0
-220 -652 0
651 652 -653 0
653 -654 0
468 -654 0
654 -655 0
-48 -655 0
650 655 -656 0
648 -657 0
656 -657 0
89 -657 0
657 -658 0
258 -658 0
658 -659 0
-172 -659 0
637 659 -660 0
609 -661 0
322 -661 0
660 -661 0
-245 -661 0
661 -662 0
-113 -662 0
602 662 -663 0
663 -664 0
-147 -664 0
549 664 -665 0
666 -667 0
249 -667 0
155 -668 0
-249 -668 0
667 668 -669 0
-3 -670 0
20 -670 0
-21 -670 0
-23 -670 0
25 -670 0
31 -670 0
32 -670 0
38 -670 0
51 -670 0
-52 -670 0
-58 -670 0
-60 -670 0
-69 -670 0
-77 -670 0
-80 -670 0
81 -670 0
-85 -670 0
-88 -670 0
94 -670 0
107 -670 0
120 -670 0
-121 -670 0
127 -670 0
132 -670 0
167 -670 0
189 -670 0
192 -670 0
-193 -670 0
199 -670 0
-205 -670 0
207 -670 0
223 -670 0
234 -670 0
-242 -670 0
-248 -670 0
373 -676 0
385 -676 0
671 -676 0
672 -676 0
673 -676 0
674 -676 0
675 -676 0
665 -677 0
669 -677 0
670 -677 0
676 -677 0
677 -678 0
678 -679 0
679 -680 0
680 -681 0
681 -683 0
682 -683 0
683 -684 0
171 -685 0
684 -686 0
685 -686 0
686 -687 0
687 -688 0
689 -690 0
-106 -690 0
44 -692 0
453 -693 0
20 -693 0
693 -694 0
132 -694 0
15 -695 0
240 -695 0
695 -696 0
388 -696 0
696 -697 0
-132 -697 0
694 697 -698 0
-106 -699 0
166 -699 0
698 -700 0
699 -700 0
368 -700 0
700 -701 0
77 -701 0
25 -702 0
-166 -702 0
702 -703 0
106 -703 0
368 -704 0
672 -704 0
704 -705 0
-106 -705 0
703 705 -706 0
20 -707 0
132 -707 0
706 -708 0
453 -708 0
707 -708 0
708 -709 0
-77 -709 0
701 709 -710 0
-119 -712 0
711 -712 0
712 -713 0
109 -713 0
193 -714 0
675 -714 0
714 -715 0
-109 -715 0
713 715 -716 0
619 -717 0
716 -717 0
717 -718 0
189 -718 0
109 -719 0
-119 -719 0
159 -719 0
711 -721 0
720 -721 0
719 -722 0
721 -722 0
722 -723 0
-189 -723 0
718 723 -724 0
-75 -725 0
-248 -725 0
710 -726 0
724 -726 0
725 -726 0
726 -728 0
727 -728 0
486 -728 0
728 -729 0
199 -729 0
166 -730 0
77 -730 0
672 -731 0
-77 -731 0
730 731 -732 0
732 -733 0
453 -733 0
20 -733 0
733 -734 0
132 -734 0
15 -735 0
77 -735 0
166 -735 0
240 -735 0
735 -736 0
388 -736 0
736 -737 0
-132 -737 0
734 737 -738 0
444 -739 0
248 -739 0
-75 -740 0
-248 -740 0
739 740 -741 0
741 -742 0
-119 -742 0
742 -743 0
711 -743 0
743 -744 0
109 -744 0
-75 -745 0
193 -745 0
745 -747 0
746 -747 0
747 -748 0
675 -748 0
748 -749 0
-109 -749 0
744 749 -750 0
750 -751 0
619 -751 0
751 -752 0
189 -752 0
711 -753 0
720 -753 0
741 -754 0
719 -754 0
753 -754 0
754 -755 0
-189 -755 0
752 755 -756 0
-208 -757 0
31 -757 0
486 -758 0
-31 -758 0
757 758 -759 0
-25 -760 0
-106 -760 0
738 -761 0
756 -761 0
759 -761 0
760 -761 0
761 -762 0
-199 -762 0
729 762 -763 0
-48 -764 0
89 -764 0
764 -765 0
671 -765 0
765 -766 0
223 -766 0
-175 -767 0
48 -767 0
671 -768 0
-48 -768 0
767 768 -769 0
769 -770 0
255 -770 0
770 -771 0
-223 -771 0
766 771 -772 0
772 -774 0
545 -774 0
773 -774 0
774 -775 0
220 -775 0
-48 -776 0
89 -776 0
-134 -776 0
671 -777 0
389 -777 0
776 -778 0
777 -778 0
778 -779 0
-220 -779 0
775 779 -780 0
-3 -781 0
21 -781 0
-23 -781 0
26 -781 0
-32 -781 0
-35 -781 0
-52 -781 0
80 -781 0
-91 -781 0
-94 -781 0
104 -781 0
107 -781 0
-111 -781 0
113 -781 0
-118 -781 0
121 -781 0
-123 -781 0
-129 -781 0
130 -781 0
142 -781 0
149 -781 0
-151 -781 0
155 -781 0
-161 -781 0
162 -781 0
168 -781 0
-171 -781 0
179 -781 0
-192 -781 0
-232 -781 0
241 -781 0
242 -781 0
-245 -781 0
-249 -781 0
385 -783 0
434 -783 0
782 -783 0
278 -783 0
425 -783 0
320 -783 0
674 -783 0
763 -784 0
780 -784 0
781 -784 0
783 -784 0
784 -785 0
86 -785 0
698 -786 0
77 -786 0
453 -787 0
707 -787 0
787 -788 0
-77 -788 0
786 788 -789 0
725 -790 0
368 -790 0
727 -790 0
486 -790 0
790 -791 0
199 -791 0
741 -792 0
759 -792 0
-25 -792 0
792 -793 0
-199 -793 0
791 793 -794 0
789 -795 0
794 -795 0
-106 -795 0
795 -796 0
166 -796 0
25 -797 0
106 -797 0
368 -798 0
-106 -798 0
797 798 -799 0
799 -800 0
725 -800 0
800 -801 0
727 -801 0
486 -801 0
801 -802 0
199 -802 0
741 -803 0
759 -803 0
760 -803 0
803 -804 0
-199 -804 0
802 804 -805 0
20 -806 0
-77 -806 0
132 -806 0
805 -807 0
453 -807 0
806 -807 0
807 -808 0
-166 -808 0
796 808 -809 0
619 -810 0
189 -810 0
159 -811 0
720 -811 0
811 -812 0
-189 -812 0
810 812 -813 0
809 -814 0
813 -814 0
80 -814 0
814 -815 0
284 -815 0
815 -816 0
121 -816 0
368 -817 0
80 -817 0
25 -818 0
-80 -818 0
817 818 -819 0
819 -820 0
725 -820 0
820 -821 0
727 -821 0
486 -821 0
821 -822 0
199 -822 0
-25 -823 0
80 -823 0
741 -824 0
759 -824 0
823 -824 0
824 -825 0
-199 -825 0
822 825 -826 0
789 -827 0
826 -827 0
-106 -827 0
827 -828 0
166 -828 0
25 -830 0
829 -830 0
830 -831 0
106 -831 0
819 -832 0
-106 -832 0
831 832 -833 0
833 -834 0
725 -834 0
834 -835 0
727 -835 0
486 -835 0
835 -836 0
199 -836 0
-25 -837 0
80 -837 0
-106 -837 0
741 -838 0
759 -838 0
837 -838 0
838 -839 0
-199 -839 0
836 839 -840 0
840 -841 0
453 -841 0
806 -841 0
841 -842 0
-166 -842 0
828 842 -843 0
189 -844 0
-242 -844 0
843 -845 0
619 -845 0
844 -845 0
845 -846 0
-121 -846 0
816 846 -847 0
-3 -848 0
21 -848 0
-23 -848 0
26 -848 0
-32 -848 0
-35 -848 0
-52 -848 0
-91 -848 0
-94 -848 0
104 -848 0
107 -848 0
109 -848 0
-111 -848 0
113 -848 0
-118 -848 0
-119 -848 0
-123 -848 0
-129 -848 0
130 -848 0
142 -848 0
149 -848 0
-151 -848 0
155 -848 0
-161 -848 0
162 -848 0
168 -848 0
-171 -848 0
179 -848 0
-192 -848 0
-193 -848 0
-232 -848 0
241 -848 0
-245 -848 0
-249 -848 0
385 -849 0
434 -849 0
782 -849 0
278 -849 0
425 -849 0
320 -849 0
674 -849 0
847 -850 0
780 -850 0
848 -850 0
849 -850 0
850 -851 0
851 -853 0
852 -853 0
853 -854 0
-86 -854 0
-27 -856 0
36 -856 0
40 -856 0
69 -856 0
-81 -856 0
137 -856 0
-139 -856 0
-180 -856 0
-186 -856 0
-200 -856 0
235 -856 0
855 -857 0
856 -857 0
96 -859 0
172 -859 0
859 -860 0
222 -863 0
863 -864 0
-44 -865 0
866 -867 0
1 0
5 0
-6 0
7 0
-8 0
9 0
-10 0
14 0
-16 0
17 0
-18 0
-19 0
-22 0
-24 0
-28 0
29 0
-30 0
-33 0
-34 0
37 0
-41 0
42 0
-43 0
-46 0
47 0
-49 0
-50 0
-53 0
54 0
-55 0
56 0
59 0
-61 0
-62 0
63 0
-64 0
-65 0
-67 0
-68 0
-70 0
-73 0
74 0
78 0
92 0
95 0
97 0
99 0
-100 0
-101 0
102 0
103 0
-105 0
-108 0
-110 0
112 0
-114 0
115 0
117 0
-122 0
-124 0
-125 0
126 0
-128 0
-131 0
-138 0
-140 0
-141 0
-144 0
145 0
146 0
-148 0
-150 0
153 0
154 0
-157 0
-158 0
-163 0
-164 0
165 0
169 0
170 0
173 0
174 0
-177 0
178 0
-181 0
183 0
184 0
-185 0
188 0
190 0
191 0
194 0
-195 0
196 0
-198 0
201 0
203 0
204 0
209 0
210 0
212 0
213 0
215 0
-216 0
-217 0
218 0
219 0
225 0
-226 0
-227 0
-228 0
230 0
231 0
-236 0
237 0
238 0
-239 0
246 0
247 0
250 0
-863 864 0
-861 862 0
-860 861 0
-859 860 0
-96 859 0
186 856 0
180 856 0
-40 856 0
-852 853 0
-849 850 0
-848 850 0
-847 850 0
-845 846 0
-844 845 0
-838 839 0
-834 835 0
-832 833 0
-831 833 0
-830 831 0
-829 830 0
-824 825 0
-822 826 0
-821 822 0
-818 819 0
-817 819 0
-816 847 0
-814 815 0
-813 814 0
-809 814 0
-805 807 0
-801 802 0
-800 801 0
-798 799 0
-791 794 0
-790 791 0
-231 867 0
-787 788 0
-793 794 0
-781 784 0
171 781 848 0
32 781 848 0
-780 784 850 0
-779 780 0
-778 779 0
-775 780 0
-772 774 0
-771 772 0
-770 771 0
-767 769 0
-764 765 0
-759 761 792 803 824 838 0
-758 759 0
-757 759 0
-756 761 0
-755 756 0
-753 754 0
-751 752 0
-741 742 754 792 803 824 838 0
-739 741 0
-248 739 746 0
-738 761 0
-737 738 0
-736 737 0
-735 736 0
-734 738 0
-733 734 0
-731 732 0
-730 732 0
-724 726 0
189 723 755 812 0
-719 722 754 0
-718 724 0
-710 726 0
-709 710 0
-707 708 787 0
-706 708 0
-702 703 0
-697 698 0
-696 697 0
-691 692 0
-690 691 0
106 690 699 705 760 795 798 827 832 837 0
-688 689 0
-685 686 0
-682 683 0
-769 770 0
-765 766 0
-680 681 0
-678 679 0
-677 678 0
-676 677 0
-675 676 714 748 0
-674 676 783 849 0
-182 674 0
-57 673 0
-794 795 0
166 672 702 808 842 0
-671 676 765 768 777 0
175 671 767 0
-701 710 0
-199 670 729 791 802 822 836 0
-167 670 0
-120 670 0
88 670 0
85 670 0
-668 669 0
-666 667 0
-785 855 0
-664 665 0
-662 663 0
-661 662 0
-658 659 0
-657 658 0
-656 657 0
-655 656 0
-654 655 0
192 781 848 0
-653 654 0
-645 646 0
-644 648 0
-127 670 0
-643 644 0
-826 827 0
-641 642 0
-640 641 0
119 675 712 719 742 848 0
-631 632 0
-714 715 0
-630 631 0
-715 716 0
-628 632 0
-713 716 0
-627 628 0
-720 721 753 811 0
-626 634 0
-625 626 0
-624 625 0
-621 622 0
-620 621 0
-703 706 0
-619 620 646 717 751 810 845 0
-616 622 0
-612 614 0
-610 611 0
-607 608 0
-606 607 0
-235 856 0
-605 609 0
-604 605 0
-750 751 0
-602 663 0
-601 602 0
-600 601 0
-599 600 0
-598 599 0
-784 785 0
-597 598 0
-596 600 0
-595 596 0
-592 593 0
-591 592 0
-590 591 606 0
-588 589 0
-587 588 0
-585 586 0
-862 864 0
-583 584 0
-581 584 0
-580 581 0
-768 769 0
-579 588 0
-578 579 0
-86 785 0
-577 578 0
-576 577 0
-575 590 0
-574 575 0
-572 573 0
-570 571 603 0
-568 569 0
-563 564 0
-562 566 0
-561 562 0
-560 561 613 0
-559 560 0
-556 569 0
-555 556 0
-554 555 0
-552 553 0
-551 553 0
-857 858 0
-550 551 0
-650 656 0
-137 547 570 574 585 856 0
-134 545 0
-544 546 0
-853 854 0
-549 665 0
-543 546 0
-752 756 0
-548 549 0
-542 543 0
-541 542 0
-193 711 714 745 0
-535 536 0
-533 537 0
-532 533 0
-531 532 615 0
-161 530 639 0
-529 530 0
-528 529 0
-837 838 0
-526 541 0
-524 525 0
-523 524 0
-522 523 606 0
-521 522 0
-519 520 0
-518 520 0
-517 518 0
-515 518 0
-514 522 0
-506 507 0
-811 812 0
-503 505 0
-501 502 0
-803 804 0
-494 495 0
-493 494 0
-492 495 0
-166 384 672 699 730 735 796 828 0
-26 413 781 848 0
-256 257 0
-106 703 797 831 0
-312 336 0
-802 805 0
214 382 0
-827 828 0
-38 384 670 782 0
-121 400 781 816 0
-717 718 0
-632 633 0
-32 384 670 0
-622 636 0
-31 670 727 757 0
31 384 727 758 0
139 449 504 508 519 856 0
-467 470 0
-27 384 480 527 533 551 562 616 644 0
-291 294 0
26 384 411 413 441 506 0
-856 857 0
-774 775 0
-704 705 0
-470 471 529 0
-608 609 0
-12 384 0
159 253 270 544 559 0
-864 865 0
-858 860 0
-84 396 0
-382 383 0
-833 834 0
-189 384 670 718 752 810 844 0
-381 383 0
-379 392 0
133 384 0
94 378 781 848 0
-584 586 0
-279 281 0
-187 384 0
211 376 0
-763 784 0
-365 367 0
-119 384 675 0
-638 641 0
-36 386 481 534 645 856 0
-375 392 0
206 374 0
-89 255 259 269 366 460 471 527 597 629 657 764 776 0
-819 820 832 0
-457 487 0
-796 809 0
113 323 542 662 0
-222 372 373 863 0
129 456 525 593 608 781 848 0
-564 565 0
-369 370 0
-374 375 0
-454 455 0
-455 456 0
-499 500 0
-25 368 670 702 797 818 830 0
72 384 0
-306 307 0
-842 843 0
-431 432 0
-527 529 0
-366 367 0
-364 365 0
-326 327 0
-553 555 0
-361 362 0
-679 680 0
-208 384 486 492 0
-815 816 0
-4 384 0
-360 361 0
-359 360 0
-358 362 0
-357 358 0
-825 826 0
-35 384 424 579 0
243 370 0
-356 363 0
-377 379 0
-788 789 0
-477 478 0
13 313 320 331 407 0
-684 686 0
-462 463 627 0
-282 286 347 0
-762 763 0
-349 350 0
-176 292 0
-51 670 0
-324 326 0
83 384 0
-855 857 0
-348 349 360 455 524 592 607 0
172 260 267 366 473 527 659 0
-123 348 0
66 384 0
-742 743 0
-341 342 0
-743 744 0
-537 538 0
-339 345 0
-232 493 0
-307 308 0
-652 653 0
-338 339 0
-565 566 0
-337 371 0
-716 717 0
-723 724 0
123 335 348 357 417 570 781 848 0
155 333 361 666 0
-648 657 0
-427 428 0
-332 333 0
-426 427 0
-155 330 358 666 668 781 848 0
-329 330 357 0
-593 594 0
-298 299 307 354 0
-21 282 304 352 781 848 0
-435 436 0
-525 526 0
-683 684 0
-373 374 676 0
-460 462 0
-290 301 0
-444 445 739 0
69 280 670 0
-162 256 258 266 465 635 781 848 0
-571 572 0
-265 273 0
-249 316 331 667 0
132 697 737 0
-647 648 0
-424 428 0
-303 304 0
-547 548 578 0
-281 286 347 0
-642 643 0
-254 262 338 340 0
-335 336 0
-272 273 0
-558 560 0
-363 364 0
-76 384 417 425 433 570 574 582 0
-611 612 0
168 384 458 461 467 468 623 0
89 255 0
38 782 0
-267 268 0
-142 283 414 448 504 509 519 781 848 0
-285 286 0
-850 851 0
-351 352 0
-69 279 310 363 856 0
-839 840 0
-649 650 0
-330 334 0
-428 429 0
-712 713 0
-629 630 0
-253 254 0
-745 747 0
-637 660 0
-342 343 0
-3 275 295 0
-566 567 0
-370 371 0
118 384 417 436 570 574 583 781 848 0
35 417 427 433 570 574 587 781 848 0
-806 807 841 0
-695 696 0
107 300 305 0
-466 474 0
-383 392 0
-220 265 305 338 340 544 596 623 628 651 775 0
-378 379 0
-646 647 0
222 373 0
-277 286 288 347 0
151 384 485 490 501 781 848 0
-276 277 0
-747 748 0
-343 344 0
-615 616 0
25 335 368 760 792 823 837 0
-846 847 0
-744 750 0
-660 661 0
-530 540 0
-345 347 351 0
-384 392 0
-251 252 482 535 555 557 563 610 620 646 0
-673 676 0
-328 329 0
-386 391 479 528 532 550 561 615 643 0
-266 268 0
-318 329 0
-698 700 786 0
20 388 0
48 263 269 344 463 469 597 633 655 764 768 776 0
-160 384 0
-473 474 0
-761 762 0
-258 259 267 367 472 528 658 0
-270 271 341 563 618 0
-139 384 417 440 503 508 570 0
-795 796 0
-635 636 0
-107 282 290 670 781 848 0
-320 321 783 849 0
162 258 0
-586 587 0
-90 556 612 617 720 0
-280 281 0
-255 256 458 461 624 770 0
-749 750 0
-539 540 0
-347 349 0
-722 723 0
-634 636 0
-397 398 0
60 278 280 670 0
-172 257 266 466 637 859 0
-269 271 0
79 384 0
-689 690 0
-380 381 420 452 490 572 0
179 251 253 269 341 477 0
-87 384 0
-362 363 0
75 384 444 446 521 725 740 745 0
-168 460 468 781 848 0
-288 289 0
-836 840 0
-179 251 305 475 781 848 0
-257 261 0
-569 601 0
-372 375 0
-149 485 531 534 638 645 781 848 0
21 308 355 670 0
-322 327 541 555 661 0
-147 549 0
-275 277 0
-264 265 0
142 283 0
-669 677 0
-451 453 0
-273 286 303 0
-823 824 0
-639 640 0
182 384 674 0
-60 278 0
-283 285 303 306 346 351 353 411 503 0
-353 354 0
-284 285 289 346 815 0
-286 287 0
-540 541 0
11 387 0
-287 312 0
-439 440 0
-118 432 576 581 0
-159 252 270 305 554 558 611 617 719 811 0
-289 290 0
-869 870 0
-294 295 0
-468 469 598 630 654 0
-262 264 0
-728 729 0
-77 282 302 701 730 735 786 0
-442 443 0
-321 322 0
15 380 382 489 499 0
-52 314 324 0
-260 261 0
-82 384 417 434 570 575 0
-726 728 0
245 328 403 405 406 541 554 661 781 848 0
-293 294 0
-502 523 606 0
200 856 0
-445 447 0
-870 871 0
-295 298 0
-234 670 0
-311 312 0
-623 625 649 0
-15 380 451 695 735 0
-207 670 0
-350 365 0
242 284 670 844 0
-325 326 0
-271 272 0
-268 271 598 0
81 311 364 856 0
-670 677 0
-500 502 0
-297 298 0
-594 601 0
-299 300 0
-782 783 849 0
-300 301 0
-789 795 827 0
-308 309 0
-71 402 0
-261 262 307 0
77 305 670 709 731 788 806 0
-252 254 0
-799 800 0
-783 784 0
-301 303 351 0
-727 728 790 801 821 835 0
205 670 0
-259 260 0
-241 384 417 430 433 570 574 582 781 848 0
-302 303 351 0
-797 799 0
-315 317 0
45 384 0
-304 309 0
220 272 342 599 631 652 779 0
-305 307 354 0
-432 437 0
-746 747 0
-536 537 0
-340 343 0
3 276 297 670 781 848 0
199 384 762 793 804 825 839 0
-352 356 0
-23 274 276 291 296 0
-393 395 0
-402 689 0
-309 310 0
-748 749 0
-659 660 0
-538 539 0
-344 345 0
-310 311 0
-618 619 0
111 313 321 331 409 781 848 0
-113 313 323 325 331 488 602 781 848 0
-820 821 0
-516 517 0
-711 712 721 743 753 0
116 384 0
-367 369 0
-667 669 0
-450 454 591 0
-355 356 0
-705 706 0
-496 497 0
-242 284 299 305 781 0
-313 315 0
-700 701 0
-171 397 685 0
-810 813 0
-504 505 0
-403 404 0
-567 568 0
-371 392 0
-263 264 306 353 0
-81 287 350 670 0
-854 855 0
-665 677 0
-449 450 0
-699 700 0
-314 315 332 359 0
-484 487 0
-807 808 0
-545 546 595 624 627 649 651 774 0
-317 318 0
-808 809 0
52 314 325 670 781 848 0
-316 317 0
-245 318 331 406 0
-336 337 0
-13 319 320 403 405 0
-296 297 0
-804 805 0
-111 319 404 0
-319 322 0
-589 590 0
-94 377 670 0
-617 619 0
-323 324 0
-368 369 700 704 790 798 817 0
208 486 494 757 0
90 384 544 568 613 618 720 0
-91 384 476 0
-868 869 0
-292 293 0
-93 384 0
-776 778 0
2 384 0
-841 842 0
-792 793 0
-104 384 417 422 426 433 570 574 585 781 848 0
-481 482 552 564 0
-636 637 0
-387 391 0
-58 773 0
-510 511 0
-408 409 0
-331 332 359 0
-221 384 0
-498 526 0
-129 384 421 498 573 605 0
-132 384 670 694 707 734 806 0
-388 391 696 736 0
-507 512 0
249 316 327 668 781 848 0
-404 410 0
134 384 545 597 629 652 776 0
-135 384 0
-840 841 0
-740 741 0
136 384 0
137 384 547 0
-421 457 0
-754 755 0
-446 447 0
143 384 0
-486 487 516 601 728 758 790 801 821 835 0
-582 583 0
-278 279 310 363 783 849 0
149 384 527 531 640 0
152 384 0
-766 772 0
-773 774 0
156 384 0
-75 417 438 444 514 570 0
82 429 434 589 0
-489 491 0
91 475 476 481 534 645 781 848 0
-732 733 0
-425 426 580 783 849 0
-346 347 0
-192 384 670 0
-828 843 0
-534 535 620 0
193 384 670 711 848 0
-478 479 529 532 559 0
197 384 0
-448 449 0
202 384 0
-760 761 803 0
36 386 0
-274 275 0
229 384 0
-603 604 0
-233 384 0
-614 615 642 0
240 384 419 452 499 0
-447 448 0
-708 709 0
244 384 0
-452 453 0
248 384 670 725 740 746 0
-777 778 0
-224 385 0
224 385 0
121 670 846 0
-613 614 0
-48 263 339 459 467 626 650 767 0
-20 388 670 693 707 733 806 0
-401 402 0
-223 389 670 766 0
223 389 771 0
-63 868 0
-412 416 0
-511 512 0
-409 410 0
-491 496 603 0
-109 390 417 438 445 513 515 570 713 719 744 848 0
-394 395 0
-476 477 550 557 610 0
109 390 446 517 715 749 0
-390 391 0
-512 513 0
-410 487 567 0
-520 521 0
-391 392 0
-392 393 0
-389 391 777 0
-395 396 0
-672 676 704 731 0
-609 661 0
27 483 536 552 565 621 647 856 0
-396 398 0
-130 397 412 441 507 781 848 0
-573 594 0
-398 399 0
-687 688 0
-465 466 0
-399 401 0
-694 698 0
-786 789 0
-475 478 0
-327 328 0
-376 377 0
-464 465 0
80 670 818 829 0
-400 401 0
-508 509 0
-405 408 0
-812 813 0
-505 506 0
-406 407 0
-509 510 0
-407 408 0
-721 722 0
-633 634 0
-411 412 0
-413 414 442 510 0
-414 415 0
130 415 442 511 0
-461 462 0
-415 416 0
-416 418 439 496 571 603 0
-513 514 0
-417 418 496 0
-418 420 0
-240 419 451 695 735 0
-480 484 0
-419 420 497 572 604 0
-420 421 0
104 422 0
-422 423 578 0
-497 498 0
-39 384 0
-423 424 0
-333 334 0
-429 431 0
-495 496 513 515 603 0
241 430 0
-430 431 577 580 0
-835 836 0
-433 435 0
-651 653 0
-334 336 347 0
-434 435 783 849 0
-436 437 0
-843 845 0
-437 454 523 0
-438 439 0
-546 548 0
-440 450 0
-441 443 0
-443 448 520 0
-729 763 0
-557 558 0
76 423 425 576 0
-453 454 501 591 693 708 733 787 807 841 0
-80 384 781 814 817 823 829 837 0
-456 457 0
-681 683 0
-458 459 0
-459 464 0
-686 687 0
-463 464 0
-469 470 0
-471 472 0
98 384 0
-472 473 0
-474 487 538 595 0
-479 480 0
-482 483 0
-725 726 790 800 820 834 0
-483 484 0
-851 853 0
-663 664 0
-354 355 0
23 274 293 670 781 848 0
-488 543 0
-175 384 671 0
-485 487 601 0
-693 694 0
-487 488 0
-151 489 500 0
-490 491 0
